p cnf 153 888
-1 -2 -18 0
-1 -3 -19 0
-1 -4 -20 0
-1 -5 -21 0
-1 -6 -22 0
-1 -7 -23 0
-1 -8 -24 0
-1 -9 -25 0
-1 -10 -26 0
-1 -11 -27 0
-1 -12 -28 0
-1 -13 -29 0
-1 -14 -30 0
-1 -15 -31 0
-1 -16 -32 0
-1 -17 -33 0
-2 -3 -34 0
-2 -4 -35 0
-2 -5 -36 0
-2 -6 -37 0
-2 -7 -38 0
-2 -8 -39 0
-2 -9 -40 0
-2 -10 -41 0
-2 -11 -42 0
-2 -12 -43 0
-2 -13 -44 0
-2 -14 -45 0
-2 -15 -46 0
-2 -16 -47 0
-2 -17 -48 0
-3 -4 -49 0
-3 -5 -50 0
-3 -6 -51 0
-3 -7 -52 0
-3 -8 -53 0
-3 -9 -54 0
-3 -10 -55 0
-3 -11 -56 0
-3 -12 -57 0
-3 -13 -58 0
-3 -14 -59 0
-3 -15 -60 0
-3 -16 -61 0
-3 -17 -62 0
-4 -5 -63 0
-4 -6 -64 0
-4 -7 -65 0
-4 -8 -66 0
-4 -9 -67 0
-4 -10 -68 0
-4 -11 -69 0
-4 -12 -70 0
-4 -13 -71 0
-4 -14 -72 0
-4 -15 -73 0
-4 -16 -74 0
-4 -17 -75 0
-5 -6 -76 0
-5 -7 -77 0
-5 -8 -78 0
-5 -9 -79 0
-5 -10 -80 0
-5 -11 -81 0
-5 -12 -82 0
-5 -13 -83 0
-5 -14 -84 0
-5 -15 -85 0
-5 -16 -86 0
-5 -17 -87 0
-6 -7 -88 0
-6 -8 -89 0
-6 -9 -90 0
-6 -10 -91 0
-6 -11 -92 0
-6 -12 -93 0
-6 -13 -94 0
-6 -14 -95 0
-6 -15 -96 0
-6 -16 -97 0
-6 -17 -98 0
-7 -8 -99 0
-7 -9 -100 0
-7 -10 -101 0
-7 -11 -102 0
-7 -12 -103 0
-7 -13 -104 0
-7 -14 -105 0
-7 -15 -106 0
-7 -16 -107 0
-7 -17 -108 0
-8 -9 -109 0
-8 -10 -110 0
-8 -11 -111 0
-8 -12 -112 0
-8 -13 -113 0
-8 -14 -114 0
-8 -15 -115 0
-8 -16 -116 0
-8 -17 -117 0
-9 -10 -118 0
-9 -11 -119 0
-9 -12 -120 0
-9 -13 -121 0
-9 -14 -122 0
-9 -15 -123 0
-9 -16 -124 0
-9 -17 -125 0
-10 -11 -126 0
-10 -12 -127 0
-10 -13 -128 0
-10 -14 -129 0
-10 -15 -130 0
-10 -16 -131 0
-10 -17 -132 0
-11 -12 -133 0
-11 -13 -134 0
-11 -14 -135 0
-11 -15 -136 0
-11 -16 -137 0
-11 -17 -138 0
-12 -13 -139 0
-12 -14 -140 0
-12 -15 -141 0
-12 -16 -142 0
-12 -17 -143 0
-13 -14 -144 0
-13 -15 -145 0
-13 -16 -146 0
-13 -17 -147 0
-14 -15 -148 0
-14 -16 -149 0
-14 -17 -150 0
-15 -16 -151 0
-15 -17 -152 0
-16 -17 -153 0
-18 -19 -34 0
-18 -20 -35 0
-18 -21 -36 0
-18 -22 -37 0
-18 -23 -38 0
-18 -24 -39 0
-18 -25 -40 0
-18 -26 -41 0
-18 -27 -42 0
-18 -28 -43 0
-18 -29 -44 0
-18 -30 -45 0
-18 -31 -46 0
-18 -32 -47 0
-18 -33 -48 0
-19 -20 -49 0
-19 -21 -50 0
-19 -22 -51 0
-19 -23 -52 0
-19 -24 -53 0
-19 -25 -54 0
-19 -26 -55 0
-19 -27 -56 0
-19 -28 -57 0
-19 -29 -58 0
-19 -30 -59 0
-19 -31 -60 0
-19 -32 -61 0
-19 -33 -62 0
-20 -21 -63 0
-20 -22 -64 0
-20 -23 -65 0
-20 -24 -66 0
-20 -25 -67 0
-20 -26 -68 0
-20 -27 -69 0
-20 -28 -70 0
-20 -29 -71 0
-20 -30 -72 0
-20 -31 -73 0
-20 -32 -74 0
-20 -33 -75 0
-21 -22 -76 0
-21 -23 -77 0
-21 -24 -78 0
-21 -25 -79 0
-21 -26 -80 0
-21 -27 -81 0
-21 -28 -82 0
-21 -29 -83 0
-21 -30 -84 0
-21 -31 -85 0
-21 -32 -86 0
-21 -33 -87 0
-22 -23 -88 0
-22 -24 -89 0
-22 -25 -90 0
-22 -26 -91 0
-22 -27 -92 0
-22 -28 -93 0
-22 -29 -94 0
-22 -30 -95 0
-22 -31 -96 0
-22 -32 -97 0
-22 -33 -98 0
-23 -24 -99 0
-23 -25 -100 0
-23 -26 -101 0
-23 -27 -102 0
-23 -28 -103 0
-23 -29 -104 0
-23 -30 -105 0
-23 -31 -106 0
-23 -32 -107 0
-23 -33 -108 0
-24 -25 -109 0
-24 -26 -110 0
-24 -27 -111 0
-24 -28 -112 0
-24 -29 -113 0
-24 -30 -114 0
-24 -31 -115 0
-24 -32 -116 0
-24 -33 -117 0
-25 -26 -118 0
-25 -27 -119 0
-25 -28 -120 0
-25 -29 -121 0
-25 -30 -122 0
-25 -31 -123 0
-25 -32 -124 0
-25 -33 -125 0
-26 -27 -126 0
-26 -28 -127 0
-26 -29 -128 0
-26 -30 -129 0
-26 -31 -130 0
-26 -32 -131 0
-26 -33 -132 0
-27 -28 -133 0
-27 -29 -134 0
-27 -30 -135 0
-27 -31 -136 0
-27 -32 -137 0
-27 -33 -138 0
-28 -29 -139 0
-28 -30 -140 0
-28 -31 -141 0
-28 -32 -142 0
-28 -33 -143 0
-29 -30 -144 0
-29 -31 -145 0
-29 -32 -146 0
-29 -33 -147 0
-30 -31 -148 0
-30 -32 -149 0
-30 -33 -150 0
-31 -32 -151 0
-31 -33 -152 0
-32 -33 -153 0
-34 -35 -49 0
-34 -36 -50 0
-34 -37 -51 0
-34 -38 -52 0
-34 -39 -53 0
-34 -40 -54 0
-34 -41 -55 0
-34 -42 -56 0
-34 -43 -57 0
-34 -44 -58 0
-34 -45 -59 0
-34 -46 -60 0
-34 -47 -61 0
-34 -48 -62 0
-35 -36 -63 0
-35 -37 -64 0
-35 -38 -65 0
-35 -39 -66 0
-35 -40 -67 0
-35 -41 -68 0
-35 -42 -69 0
-35 -43 -70 0
-35 -44 -71 0
-35 -45 -72 0
-35 -46 -73 0
-35 -47 -74 0
-35 -48 -75 0
-36 -37 -76 0
-36 -38 -77 0
-36 -39 -78 0
-36 -40 -79 0
-36 -41 -80 0
-36 -42 -81 0
-36 -43 -82 0
-36 -44 -83 0
-36 -45 -84 0
-36 -46 -85 0
-36 -47 -86 0
-36 -48 -87 0
-37 -38 -88 0
-37 -39 -89 0
-37 -40 -90 0
-37 -41 -91 0
-37 -42 -92 0
-37 -43 -93 0
-37 -44 -94 0
-37 -45 -95 0
-37 -46 -96 0
-37 -47 -97 0
-37 -48 -98 0
-38 -39 -99 0
-38 -40 -100 0
-38 -41 -101 0
-38 -42 -102 0
-38 -43 -103 0
-38 -44 -104 0
-38 -45 -105 0
-38 -46 -106 0
-38 -47 -107 0
-38 -48 -108 0
-39 -40 -109 0
-39 -41 -110 0
-39 -42 -111 0
-39 -43 -112 0
-39 -44 -113 0
-39 -45 -114 0
-39 -46 -115 0
-39 -47 -116 0
-39 -48 -117 0
-40 -41 -118 0
-40 -42 -119 0
-40 -43 -120 0
-40 -44 -121 0
-40 -45 -122 0
-40 -46 -123 0
-40 -47 -124 0
-40 -48 -125 0
-41 -42 -126 0
-41 -43 -127 0
-41 -44 -128 0
-41 -45 -129 0
-41 -46 -130 0
-41 -47 -131 0
-41 -48 -132 0
-42 -43 -133 0
-42 -44 -134 0
-42 -45 -135 0
-42 -46 -136 0
-42 -47 -137 0
-42 -48 -138 0
-43 -44 -139 0
-43 -45 -140 0
-43 -46 -141 0
-43 -47 -142 0
-43 -48 -143 0
-44 -45 -144 0
-44 -46 -145 0
-44 -47 -146 0
-44 -48 -147 0
-45 -46 -148 0
-45 -47 -149 0
-45 -48 -150 0
-46 -47 -151 0
-46 -48 -152 0
-47 -48 -153 0
-49 -50 -63 0
-49 -51 -64 0
-49 -52 -65 0
-49 -53 -66 0
-49 -54 -67 0
-49 -55 -68 0
-49 -56 -69 0
-49 -57 -70 0
-49 -58 -71 0
-49 -59 -72 0
-49 -60 -73 0
-49 -61 -74 0
-49 -62 -75 0
-50 -51 -76 0
-50 -52 -77 0
-50 -53 -78 0
-50 -54 -79 0
-50 -55 -80 0
-50 -56 -81 0
-50 -57 -82 0
-50 -58 -83 0
-50 -59 -84 0
-50 -60 -85 0
-50 -61 -86 0
-50 -62 -87 0
-51 -52 -88 0
-51 -53 -89 0
-51 -54 -90 0
-51 -55 -91 0
-51 -56 -92 0
-51 -57 -93 0
-51 -58 -94 0
-51 -59 -95 0
-51 -60 -96 0
-51 -61 -97 0
-51 -62 -98 0
-52 -53 -99 0
-52 -54 -100 0
-52 -55 -101 0
-52 -56 -102 0
-52 -57 -103 0
-52 -58 -104 0
-52 -59 -105 0
-52 -60 -106 0
-52 -61 -107 0
-52 -62 -108 0
-53 -54 -109 0
-53 -55 -110 0
-53 -56 -111 0
-53 -57 -112 0
-53 -58 -113 0
-53 -59 -114 0
-53 -60 -115 0
-53 -61 -116 0
-53 -62 -117 0
-54 -55 -118 0
-54 -56 -119 0
-54 -57 -120 0
-54 -58 -121 0
-54 -59 -122 0
-54 -60 -123 0
-54 -61 -124 0
-54 -62 -125 0
-55 -56 -126 0
-55 -57 -127 0
-55 -58 -128 0
-55 -59 -129 0
-55 -60 -130 0
-55 -61 -131 0
-55 -62 -132 0
-56 -57 -133 0
-56 -58 -134 0
-56 -59 -135 0
-56 -60 -136 0
-56 -61 -137 0
-56 -62 -138 0
-57 -58 -139 0
-57 -59 -140 0
-57 -60 -141 0
-57 -61 -142 0
-57 -62 -143 0
-58 -59 -144 0
-58 -60 -145 0
-58 -61 -146 0
-58 -62 -147 0
-59 -60 -148 0
-59 -61 -149 0
-59 -62 -150 0
-60 -61 -151 0
-60 -62 -152 0
-61 -62 -153 0
-63 -64 -76 0
-63 -65 -77 0
-63 -66 -78 0
-63 -67 -79 0
-63 -68 -80 0
-63 -69 -81 0
-63 -70 -82 0
-63 -71 -83 0
-63 -72 -84 0
-63 -73 -85 0
-63 -74 -86 0
-63 -75 -87 0
-64 -65 -88 0
-64 -66 -89 0
-64 -67 -90 0
-64 -68 -91 0
-64 -69 -92 0
-64 -70 -93 0
-64 -71 -94 0
-64 -72 -95 0
-64 -73 -96 0
-64 -74 -97 0
-64 -75 -98 0
-65 -66 -99 0
-65 -67 -100 0
-65 -68 -101 0
-65 -69 -102 0
-65 -70 -103 0
-65 -71 -104 0
-65 -72 -105 0
-65 -73 -106 0
-65 -74 -107 0
-65 -75 -108 0
-66 -67 -109 0
-66 -68 -110 0
-66 -69 -111 0
-66 -70 -112 0
-66 -71 -113 0
-66 -72 -114 0
-66 -73 -115 0
-66 -74 -116 0
-66 -75 -117 0
-67 -68 -118 0
-67 -69 -119 0
-67 -70 -120 0
-67 -71 -121 0
-67 -72 -122 0
-67 -73 -123 0
-67 -74 -124 0
-67 -75 -125 0
-68 -69 -126 0
-68 -70 -127 0
-68 -71 -128 0
-68 -72 -129 0
-68 -73 -130 0
-68 -74 -131 0
-68 -75 -132 0
-69 -70 -133 0
-69 -71 -134 0
-69 -72 -135 0
-69 -73 -136 0
-69 -74 -137 0
-69 -75 -138 0
-70 -71 -139 0
-70 -72 -140 0
-70 -73 -141 0
-70 -74 -142 0
-70 -75 -143 0
-71 -72 -144 0
-71 -73 -145 0
-71 -74 -146 0
-71 -75 -147 0
-72 -73 -148 0
-72 -74 -149 0
-72 -75 -150 0
-73 -74 -151 0
-73 -75 -152 0
-74 -75 -153 0
-76 -77 -88 0
-76 -78 -89 0
-76 -79 -90 0
-76 -80 -91 0
-76 -81 -92 0
-76 -82 -93 0
-76 -83 -94 0
-76 -84 -95 0
-76 -85 -96 0
-76 -86 -97 0
-76 -87 -98 0
-77 -78 -99 0
-77 -79 -100 0
-77 -80 -101 0
-77 -81 -102 0
-77 -82 -103 0
-77 -83 -104 0
-77 -84 -105 0
-77 -85 -106 0
-77 -86 -107 0
-77 -87 -108 0
-78 -79 -109 0
-78 -80 -110 0
-78 -81 -111 0
-78 -82 -112 0
-78 -83 -113 0
-78 -84 -114 0
-78 -85 -115 0
-78 -86 -116 0
-78 -87 -117 0
-79 -80 -118 0
-79 -81 -119 0
-79 -82 -120 0
-79 -83 -121 0
-79 -84 -122 0
-79 -85 -123 0
-79 -86 -124 0
-79 -87 -125 0
-80 -81 -126 0
-80 -82 -127 0
-80 -83 -128 0
-80 -84 -129 0
-80 -85 -130 0
-80 -86 -131 0
-80 -87 -132 0
-81 -82 -133 0
-81 -83 -134 0
-81 -84 -135 0
-81 -85 -136 0
-81 -86 -137 0
-81 -87 -138 0
-82 -83 -139 0
-82 -84 -140 0
-82 -85 -141 0
-82 -86 -142 0
-82 -87 -143 0
-83 -84 -144 0
-83 -85 -145 0
-83 -86 -146 0
-83 -87 -147 0
-84 -85 -148 0
-84 -86 -149 0
-84 -87 -150 0
-85 -86 -151 0
-85 -87 -152 0
-86 -87 -153 0
-88 -89 -99 0
-88 -90 -100 0
-88 -91 -101 0
-88 -92 -102 0
-88 -93 -103 0
-88 -94 -104 0
-88 -95 -105 0
-88 -96 -106 0
-88 -97 -107 0
-88 -98 -108 0
-89 -90 -109 0
-89 -91 -110 0
-89 -92 -111 0
-89 -93 -112 0
-89 -94 -113 0
-89 -95 -114 0
-89 -96 -115 0
-89 -97 -116 0
-89 -98 -117 0
-90 -91 -118 0
-90 -92 -119 0
-90 -93 -120 0
-90 -94 -121 0
-90 -95 -122 0
-90 -96 -123 0
-90 -97 -124 0
-90 -98 -125 0
-91 -92 -126 0
-91 -93 -127 0
-91 -94 -128 0
-91 -95 -129 0
-91 -96 -130 0
-91 -97 -131 0
-91 -98 -132 0
-92 -93 -133 0
-92 -94 -134 0
-92 -95 -135 0
-92 -96 -136 0
-92 -97 -137 0
-92 -98 -138 0
-93 -94 -139 0
-93 -95 -140 0
-93 -96 -141 0
-93 -97 -142 0
-93 -98 -143 0
-94 -95 -144 0
-94 -96 -145 0
-94 -97 -146 0
-94 -98 -147 0
-95 -96 -148 0
-95 -97 -149 0
-95 -98 -150 0
-96 -97 -151 0
-96 -98 -152 0
-97 -98 -153 0
-99 -100 -109 0
-99 -101 -110 0
-99 -102 -111 0
-99 -103 -112 0
-99 -104 -113 0
-99 -105 -114 0
-99 -106 -115 0
-99 -107 -116 0
-99 -108 -117 0
-100 -101 -118 0
-100 -102 -119 0
-100 -103 -120 0
-100 -104 -121 0
-100 -105 -122 0
-100 -106 -123 0
-100 -107 -124 0
-100 -108 -125 0
-101 -102 -126 0
-101 -103 -127 0
-101 -104 -128 0
-101 -105 -129 0
-101 -106 -130 0
-101 -107 -131 0
-101 -108 -132 0
-102 -103 -133 0
-102 -104 -134 0
-102 -105 -135 0
-102 -106 -136 0
-102 -107 -137 0
-102 -108 -138 0
-103 -104 -139 0
-103 -105 -140 0
-103 -106 -141 0
-103 -107 -142 0
-103 -108 -143 0
-104 -105 -144 0
-104 -106 -145 0
-104 -107 -146 0
-104 -108 -147 0
-105 -106 -148 0
-105 -107 -149 0
-105 -108 -150 0
-106 -107 -151 0
-106 -108 -152 0
-107 -108 -153 0
-109 -110 -118 0
-109 -111 -119 0
-109 -112 -120 0
-109 -113 -121 0
-109 -114 -122 0
-109 -115 -123 0
-109 -116 -124 0
-109 -117 -125 0
-110 -111 -126 0
-110 -112 -127 0
-110 -113 -128 0
-110 -114 -129 0
-110 -115 -130 0
-110 -116 -131 0
-110 -117 -132 0
-111 -112 -133 0
-111 -113 -134 0
-111 -114 -135 0
-111 -115 -136 0
-111 -116 -137 0
-111 -117 -138 0
-112 -113 -139 0
-112 -114 -140 0
-112 -115 -141 0
-112 -116 -142 0
-112 -117 -143 0
-113 -114 -144 0
-113 -115 -145 0
-113 -116 -146 0
-113 -117 -147 0
-114 -115 -148 0
-114 -116 -149 0
-114 -117 -150 0
-115 -116 -151 0
-115 -117 -152 0
-116 -117 -153 0
-118 -119 -126 0
-118 -120 -127 0
-118 -121 -128 0
-118 -122 -129 0
-118 -123 -130 0
-118 -124 -131 0
-118 -125 -132 0
-119 -120 -133 0
-119 -121 -134 0
-119 -122 -135 0
-119 -123 -136 0
-119 -124 -137 0
-119 -125 -138 0
-120 -121 -139 0
-120 -122 -140 0
-120 -123 -141 0
-120 -124 -142 0
-120 -125 -143 0
-121 -122 -144 0
-121 -123 -145 0
-121 -124 -146 0
-121 -125 -147 0
-122 -123 -148 0
-122 -124 -149 0
-122 -125 -150 0
-123 -124 -151 0
-123 -125 -152 0
-124 -125 -153 0
-126 -127 -133 0
-126 -128 -134 0
-126 -129 -135 0
-126 -130 -136 0
-126 -131 -137 0
-126 -132 -138 0
-127 -128 -139 0
-127 -129 -140 0
-127 -130 -141 0
-127 -131 -142 0
-127 -132 -143 0
-128 -129 -144 0
-128 -130 -145 0
-128 -131 -146 0
-128 -132 -147 0
-129 -130 -148 0
-129 -131 -149 0
-129 -132 -150 0
-130 -131 -151 0
-130 -132 -152 0
-131 -132 -153 0
-133 -134 -139 0
-133 -135 -140 0
-133 -136 -141 0
-133 -137 -142 0
-133 -138 -143 0
-134 -135 -144 0
-134 -136 -145 0
-134 -137 -146 0
-134 -138 -147 0
-135 -136 -148 0
-135 -137 -149 0
-135 -138 -150 0
-136 -137 -151 0
-136 -138 -152 0
-137 -138 -153 0
-139 -140 -144 0
-139 -141 -145 0
-139 -142 -146 0
-139 -143 -147 0
-140 -141 -148 0
-140 -142 -149 0
-140 -143 -150 0
-141 -142 -151 0
-141 -143 -152 0
-142 -143 -153 0
-144 -145 -148 0
-144 -146 -149 0
-144 -147 -150 0
-145 -146 -151 0
-145 -147 -152 0
-146 -147 -153 0
-148 -149 -151 0
-148 -150 -152 0
-149 -150 -153 0
-151 -152 -153 0
1 2 18 0
2 3 34 0
3 4 49 0
4 5 63 0
5 6 76 0
6 7 88 0
7 8 99 0
8 9 109 0
9 10 118 0
10 11 126 0
11 12 133 0
12 13 139 0
13 14 144 0
14 15 148 0
15 16 151 0
16 17 153 0
18 20 35 0
19 21 50 0
20 22 64 0
21 23 77 0
22 24 89 0
23 25 100 0
24 26 110 0
25 27 119 0
26 28 127 0
27 29 134 0
28 30 140 0
29 31 145 0
30 32 149 0
31 33 152 0
34 37 51 0
35 38 65 0
36 39 78 0
37 40 90 0
38 41 101 0
39 42 111 0
40 43 120 0
41 44 128 0
42 45 135 0
43 46 141 0
44 47 146 0
45 48 150 0
49 53 66 0
50 54 79 0
51 55 91 0
52 56 102 0
53 57 112 0
54 58 121 0
55 59 129 0
56 60 136 0
57 61 142 0
58 62 147 0
63 68 80 0
64 69 92 0
65 70 103 0
66 71 113 0
67 72 122 0
68 73 130 0
69 74 137 0
70 75 143 0
76 82 93 0
77 83 104 0
78 84 114 0
79 85 123 0
80 86 131 0
81 87 138 0
88 95 105 0
89 96 115 0
90 97 124 0
91 98 132 0
99 107 116 0
100 108 125 0
